W=8;
H=5;

MAX_TIME=18;
MAX_TRACKS=13;

TARGET=(1,8);

TRAINS=[(2,1,RIGHT),(4,1,RIGHT)];
DECOYS=[(3,8,TOP)];

INIT_POS=[
(1,2,CORNER_DR),
(1,3,CORNER_DL),
(1,7,STRAIGHT_RL),
(1,8,STRAIGHT_RL),
(2,1,STRAIGHT_RL),
(2,2,SWITCH_L_R_T),
(2,3,DSWITCH_R_L_T),
(3,5,STRAIGHT_TD),
(3,7,STRAIGHT_TD),
(3,8,STRAIGHT_TD),
(4,1,STRAIGHT_RL),
(4,2,SWITCH_L_R_D),
(4,3,DSWITCH_R_L_D),
(5,2,CORNER_TR),
(5,3,CORNER_TL),
];
TUNNEL_PAIRS=[];

GATES=[
(1,7,2,true),
];
ACTIVATIONS=[
(3,5,2),
(3,7,1),
];

DSWITCHES=[
(2,3,2),
(4,3,1),
];
STATIONS=[];
